menu/lo1.lp
\* lo1 *\
Maximize
OBJ: 15 x1 + 18 x2 + 30 x3
Subject To
c_1: 2 x1 + x2 + x3 <= 60
c_2: x1 + 2 x2 + x3 <= 60
Bounds
x1 <= 1e+100
x2 <= 1e+100
x3 <= 30
End
