menu/lo1.mps
*SENSE:Maximize
NAME          lo1
ROWS
 N  OBJ
 L  c_1
 L  c_2
COLUMNS
    x1        c_1        2.000000000000e+00
    x1        c_2        1.000000000000e+00
    x1        OBJ        1.500000000000e+01
    x2        c_1        1.000000000000e+00
    x2        c_2        2.000000000000e+00
    x2        OBJ        1.800000000000e+01
    x3        c_1        1.000000000000e+00
    x3        c_2        1.000000000000e+00
    x3        OBJ        3.000000000000e+01
RHS
    RHS       c_1        6.000000000000e+01
    RHS       c_2        6.000000000000e+01
BOUNDS
 UP BND       x1         1.000000000000e+100
 UP BND       x2         1.000000000000e+100
 UP BND       x3         3.000000000000e+01
ENDATA
